Traveling Salesman Problem/TSP_generados/Aleatorio1621103404_13.tsp
NAME: Aleatorio1621103404_13.tsp
COMMENT: Randomly generated scenario
TYPE: TSP
DIMENSION: 13
EDGE_WEIGHT_TYPE: ATT
NODE_COORD_SECTION
1 12.63 33.13
2 20.23 36.14
3 27.26 11.04
4 10.21 31.63
5 44.51 27.98
6 47.77 32.47
7 13.06 34.87
8 15.39 18.19
9 14.69 45.41
10 0.06 10.7
11 19.57 1.63
12 33.36 35.92
13 8.76 30.13
