Traveling Salesman Problem/TSP_generados/Aleatorio1621103404_13.opt.tour
NAME: Aleatorio1621103404_13.opt.tour
COMMENT: Optimal solution for Aleatorio1621103404_13 (150.25201754115722)
TYPE: TOUR
DIMENSION: 13
TOUR_SECTION
1 4 13 8 10 11 3 5 6 12 2 9 7
-1
EOF
